c description: Random 3-CNF over 12 variables and 36 clauses
p cnf 12 36
3 -6 -11 0
2 5 -7 0
-2 4 -11 0
-1 -5 -12 0
1 9 -12 0
-2 -4 -6 0
1 -2 -11 0
7 10 11 0
2 8 9 0
-6 10 11 0
-8 10 -11 0
4 -8 10 0
4 -8 11 0
2 -5 8 0
6 8 -9 0
-1 -3 11 0
-3 11 -12 0
-2 3 -11 0
-1 2 -7 0
3 -5 -10 0
3 10 -12 0
2 -8 9 0
-5 7 -12 0
-4 8 11 0
-5 8 -9 0
2 3 -7 0
-6 9 11 0
-7 -8 -11 0
2 6 -7 0
2 8 -9 0
3 7 -12 0
4 9 -10 0
-1 -9 10 0
-5 10 11 0
-2 4 -8 0
2 6 -12 0